s td 42 14 55
b 1 14 41
b 2 2 46 51
b 3 42 55
b 4 9 23 51
b 5 8 12 30
b 6 3 18 31
b 7 2 3 20 51
b 8 7 20 21 25
b 9 19 26 42 50
b 10 6 30 43 54
b 11 1 5 20 30 35 42 44 48 51
b 12 3 5 6 10 20 30 33 35 39 42 44 48 50 51
b 13 3 5 6 10 30 33 35 39 42 44 50 51 52
b 14 3 5 6 10 19 33 39 42 50 51 52
b 15 3 5 6 10 16 19 33 39 50 51
b 16 3 5 6 10 13 16 33
b 17 3 4 5 6 13
b 18 3 13 16 31 33
b 19 3 6 10 20 27 30 33 35 39 42 44 48 50 51
b 20 3 6 10 20 27 30 33 36 39 42 44 48 50 51
b 21 3 6 7 20 27 30 33 36 39 42 44 48 50 51
b 22 3 6 7 20 30 36 39 42 44 48 49 50 51
b 23 3 7 30 36 39 40 42 44 48 49 50 51
b 24 3 7 23 30 36 40 44 48 49 50 51
b 25 3 23 30 38 40 44 50 51
b 26 8 23 30 38 40 44
b 27 11 23 38 40
b 28 23 36 41 49
b 29 20 32 39 48 49
b 30 3 7 17 27 33 36 39 42
b 31 3 17 36 42 47
b 32 3 7 20 25 50
b 33 7 27 29 42 44 50
b 34 10 20 33 36 53
b 35 6 10 27 30 34 39 44 48
b 36 6 10 15 30 34 44
b 37 6 15 30 54
b 38 1 5 20 22 35 48 51
b 39 5 20 22 28 51
b 40 20 22 37 48
b 41 1 24 42 44
b 42 45
1 28
1 42
2 7
3 11
4 24
5 26
6 18
7 12
8 32
9 14
10 37
11 12
11 38
11 41
12 13
12 19
13 14
14 15
15 16
16 17
16 18
19 20
19 35
20 21
20 34
21 22
21 30
21 32
21 33
22 23
22 29
23 24
24 25
24 28
25 26
25 27
30 31
35 36
36 37
38 39
38 40
